37262 36052 
38386 35534 
37119 36102 
38989 35210 
37850 35767 
36948 36158 
38152 35640 
38880 35245 
39577 34925 
39435 34977 
38740 35355 
37495 35939 
39167 35157 
39468 34960 
39025 35209 
38592 35450 
37309 36030 
39613 34924 
38853 35263 
37702 35862 
37022 36118 
36703 36268 
40061 34561 
37560 35914 
37082 36106 
36416 36356 
40687 34178 
39965 34636 
36795 36194 
40241 34411 
35196 36668 
40591 34233 
35487 36613 
36148 36392 
35842 36600 
36257 36357 
36497 36344 
36210 36387 
36852 36172 
37633 35901 
37207 36053 
37934 35704 
38221 35616 
38043 35669 
